MAXIMIZE
OBJ:  +0.32x0 +7.95x1 -4.58x2 +150.74x3 +194.95x4 -24.96x5 -10.26x6
SUBJECT TO

C0:  +11.82x0 +14.43x1 +14.08x2 +15.50x3 +11.11x4 +5.27x5 +14.75x6 + s0 = 83.51
C1:  +5.69x0 +16.74x1 +18.79x2 +6.99x3 +19.28x4 +12.88x5 +14.90x6 + s1 = 127.75
C2:  +10.33x0 +19.23x1 +14.25x2 +0.77x3 +0.88x4 +5.11x5 +13.15x6 + s2 = 90.15
Binary
x3
x4
General
x5
x6
END